networks/zoo_72_1260/zoo_72_1260.txt
Number of groups: 36
Flow 2: {28 3} {3 39} 
Flow 9: {7 5} {5 6} {6 10} {10 46} 
Flow 12: {10 22} {22 12} {12 13} {13 49} 
Flow 24: {24 23} {23 25} {25 61} 
Flow 35: {27 36} {36 72} 
Flow 42: {2 1} {1 7} {7 8} {8 44} 
Flow 61: {1 4} {4 28} {28 29} {29 27} {27 63} 
Flow 97: {3 28} {28 64} 
Flow 102: {29 30} {30 31} {31 32} {32 33} {33 69} 
Flow 169: {31 30} {30 66} 
Flow 252: {8 7} {7 43} 
Flow 359: {13 18} {18 23} {23 24} {24 9} {9 45} 
Flow 364: {11 13} {13 14} {14 15} {15 51} 
Flow 369: {25 19} {19 20} {20 56} 
Flow 485: {15 34} {34 33} {33 32} {32 31} {31 67} 
Flow 530: {6 5} {5 41} 
Flow 556: {16 35} {35 32} {32 68} 
Flow 577: {17 18} {18 54} 
Flow 667: {5 7} {7 1} {1 2} {2 38} 
Flow 677: {23 18} {18 13} {13 12} {12 48} 
Flow 706: {21 9} {9 6} {6 42} 
Flow 768: {22 10} {10 35} {35 34} {34 70} 
Flow 861: {20 21} {21 57} 
Flow 894: {26 19} {19 55} 
Flow 897: {12 22} {22 58} 
Flow 898: {19 25} {25 23} {23 59} 
Flow 944: {36 35} {35 71} 
Flow 946: {4 1} {1 37} 
Flow 1019: {30 29} {29 28} {28 4} {4 40} 
Flow 1026: {14 13} {13 11} {11 47} 
Flow 1031: {32 35} {35 16} {16 52} 
Flow 1074: {35 10} {10 6} {6 9} {9 24} {24 60} 
Flow 1134: {33 34} {34 15} {15 14} {14 50} 
Flow 1137: {18 17} {17 53} 
Flow 1184: {34 35} {35 36} {36 27} {27 29} {29 65} 
Flow 1251: {9 21} {21 20} {20 19} {19 26} {26 62} 
Time taken running everything: 16 seconds
