networks/zoo_72_1260/zoo_72_1260.sol
<?xml version = "1.0" encoding="UTF-8" standalone="yes"?>
<CPLEXSolution version="1.2">
 <header
   problemName="networks/zoo_72_1260/zoo_72_1260.lp"
   solutionName="incumbent"
   solutionIndex="-1"
   objectiveValue="36"
   solutionTypeValue="3"
   solutionTypeString="primal"
   solutionStatusValue="101"
   solutionStatusString="integer optimal solution"
   solutionMethodString="mip"
   primalFeasible="1"
   dualFeasible="1"
   MIPNodes="266"
   MIPIterations="17318"
   writeLevel="3"/>
 <quality
   epInt="1.0000000000000001e-05"
   epRHS="9.9999999999999995e-07"
   maxIntInfeas="0"
   maxPrimalInfeas="0"
   maxX="4"
   maxSlack="10"/>
 <variables>
  <variable name="Y(2,3)" index="74" value="1"/>
  <variable name="Y(9,10)" index="585" value="1"/>
  <variable name="Y(12,13)" index="804" value="1"/>
  <variable name="Y(24,25)" index="1680" value="1"/>
  <variable name="Y(35,36)" index="2483" value="1"/>
  <variable name="Y(42,8)" index="2959" value="1"/>
  <variable name="Y(61,27)" index="4346" value="1"/>
  <variable name="Y(97,28)" index="6939" value="1"/>
  <variable name="Y(102,33)" index="7304" value="1"/>
  <variable name="Y(169,30)" index="12125" value="1"/>
  <variable name="Y(252,7)" index="18078" value="1"/>
  <variable name="Y(359,9)" index="25784" value="1"/>
  <variable name="Y(364,15)" index="26150" value="1"/>
  <variable name="Y(369,20)" index="26515" value="1"/>
  <variable name="Y(485,31)" index="34878" value="1"/>
  <variable name="Y(530,5)" index="38092" value="1"/>
  <variable name="Y(556,32)" index="39991" value="1"/>
  <variable name="Y(577,18)" index="41489" value="1"/>
  <variable name="Y(667,2)" index="47953" value="1"/>
  <variable name="Y(677,12)" index="48683" value="1"/>
  <variable name="Y(706,6)" index="50765" value="1"/>
  <variable name="Y(768,34)" index="55257" value="1"/>
  <variable name="Y(861,21)" index="61940" value="1"/>
  <variable name="Y(894,19)" index="64314" value="1"/>
  <variable name="Y(897,22)" index="64533" value="1"/>
  <variable name="Y(898,23)" index="64606" value="1"/>
  <variable name="Y(944,35)" index="67930" value="1"/>
  <variable name="Y(946,1)" index="68040" value="1"/>
  <variable name="Y(1019,4)" index="73299" value="1"/>
  <variable name="Y(1026,11)" index="73810" value="1"/>
  <variable name="Y(1031,16)" index="74175" value="1"/>
  <variable name="Y(1074,24)" index="77279" value="1"/>
  <variable name="Y(1134,14)" index="81589" value="1"/>
  <variable name="Y(1137,17)" index="81808" value="1"/>
  <variable name="Y(1184,29)" index="85204" value="1"/>
  <variable name="Y(1251,26)" index="90025" value="1"/>
  <variable name="X(1,2,667)" index="91386" value="1"/>
  <variable name="X(1,4,61)" index="92040" value="1"/>
  <variable name="X(1,7,42)" index="93281" value="1"/>
  <variable name="X(1,37,946)" index="95445" value="1"/>
  <variable name="X(2,1,42)" index="95801" value="1"/>
  <variable name="X(2,38,667)" index="97686" value="1"/>
  <variable name="X(3,28,97)" index="98376" value="1"/>
  <variable name="X(3,39,2)" index="99541" value="1"/>
  <variable name="X(4,1,946)" index="101745" value="1"/>
  <variable name="X(4,28,61)" index="102120" value="1"/>
  <variable name="X(4,40,1019)" index="104338" value="1"/>
  <variable name="X(5,6,9)" index="104588" value="1"/>
  <variable name="X(5,7,667)" index="106506" value="1"/>
  <variable name="X(5,41,530)" index="107629" value="1"/>
  <variable name="X(6,5,530)" index="108889" value="1"/>
  <variable name="X(6,9,1074)" index="110693" value="1"/>
  <variable name="X(6,10,9)" index="110888" value="1"/>
  <variable name="X(6,42,706)" index="112845" value="1"/>
  <variable name="X(7,1,667)" index="114066" value="1"/>
  <variable name="X(7,5,9)" index="114668" value="1"/>
  <variable name="X(7,8,42)" index="115961" value="1"/>
  <variable name="X(7,43,252)" index="117431" value="1"/>
  <variable name="X(8,7,252)" index="118691" value="1"/>
  <variable name="X(8,44,42)" index="119741" value="1"/>
  <variable name="X(9,6,706)" index="121665" value="1"/>
  <variable name="X(9,21,1251)" index="123470" value="1"/>
  <variable name="X(9,24,1074)" index="124553" value="1"/>
  <variable name="X(9,45,359)" index="125098" value="1"/>
  <variable name="X(10,6,1074)" index="127073" value="1"/>
  <variable name="X(10,22,12)" index="127271" value="1"/>
  <variable name="X(10,35,768)" index="129287" value="1"/>
  <variable name="X(10,46,9)" index="129788" value="1"/>
  <variable name="X(11,13,364)" index="131403" value="1"/>
  <variable name="X(11,47,1026)" index="133325" value="1"/>
  <variable name="X(12,13,12)" index="133571" value="1"/>
  <variable name="X(12,22,897)" index="135716" value="1"/>
  <variable name="X(12,48,677)" index="136756" value="1"/>
  <variable name="X(13,11,1026)" index="138365" value="1"/>
  <variable name="X(13,12,677)" index="139276" value="1"/>
  <variable name="X(13,14,364)" index="140223" value="1"/>
  <variable name="X(13,18,359)" index="141478" value="1"/>
  <variable name="X(13,49,12)" index="142391" value="1"/>
  <variable name="X(14,13,1026)" index="144665" value="1"/>
  <variable name="X(14,15,364)" index="145263" value="1"/>
  <variable name="X(14,50,1134)" index="147293" value="1"/>
  <variable name="X(15,14,1134)" index="148553" value="1"/>
  <variable name="X(15,34,485)" index="149164" value="1"/>
  <variable name="X(15,51,364)" index="150303" value="1"/>
  <variable name="X(16,35,556)" index="151755" value="1"/>
  <variable name="X(16,52,1031)" index="153490" value="1"/>
  <variable name="X(17,18,577)" index="154296" value="1"/>
  <variable name="X(17,53,1137)" index="156116" value="1"/>
  <variable name="X(18,13,677)" index="156916" value="1"/>
  <variable name="X(18,17,1137)" index="158636" value="1"/>
  <variable name="X(18,23,359)" index="159118" value="1"/>
  <variable name="X(18,54,577)" index="160596" value="1"/>
  <variable name="X(19,20,369)" index="161648" value="1"/>
  <variable name="X(19,25,898)" index="163437" value="1"/>
  <variable name="X(19,26,1251)" index="165050" value="1"/>
  <variable name="X(19,55,894)" index="165953" value="1"/>
  <variable name="X(20,19,1251)" index="167570" value="1"/>
  <variable name="X(20,21,861)" index="168440" value="1"/>
  <variable name="X(20,56,369)" index="169208" value="1"/>
  <variable name="X(21,9,706)" index="170805" value="1"/>
  <variable name="X(21,20,1251)" index="172610" value="1"/>
  <variable name="X(21,57,861)" index="173480" value="1"/>
  <variable name="X(22,10,768)" index="174647" value="1"/>
  <variable name="X(22,12,12)" index="175151" value="1"/>
  <variable name="X(22,58,897)" index="177296" value="1"/>
  <variable name="X(23,18,677)" index="178336" value="1"/>
  <variable name="X(23,24,359)" index="179278" value="1"/>
  <variable name="X(23,25,24)" index="180203" value="1"/>
  <variable name="X(23,59,898)" index="182337" value="1"/>
  <variable name="X(24,9,359)" index="183058" value="1"/>
  <variable name="X(24,23,24)" index="183983" value="1"/>
  <variable name="X(24,60,1074)" index="186293" value="1"/>
  <variable name="X(25,19,369)" index="186848" value="1"/>
  <variable name="X(25,23,898)" index="188637" value="1"/>
  <variable name="X(25,61,24)" index="189023" value="1"/>
  <variable name="X(26,19,894)" index="191153" value="1"/>
  <variable name="X(26,62,1251)" index="192770" value="1"/>
  <variable name="X(27,29,1184)" index="193963" value="1"/>
  <variable name="X(27,36,35)" index="194074" value="1"/>
  <variable name="X(27,63,61)" index="195360" value="1"/>
  <variable name="X(28,3,2)" index="196561" value="1"/>
  <variable name="X(28,4,1019)" index="198838" value="1"/>
  <variable name="X(28,29,61)" index="199140" value="1"/>
  <variable name="X(28,64,97)" index="200436" value="1"/>
  <variable name="X(29,27,61)" index="201660" value="1"/>
  <variable name="X(29,28,1019)" index="203878" value="1"/>
  <variable name="X(29,30,102)" index="204221" value="1"/>
  <variable name="X(29,65,1184)" index="206563" value="1"/>
  <variable name="X(30,29,1019)" index="207658" value="1"/>
  <variable name="X(30,31,102)" index="208001" value="1"/>
  <variable name="X(30,66,169)" index="209328" value="1"/>
  <variable name="X(31,30,169)" index="210588" value="1"/>
  <variable name="X(31,32,102)" index="211781" value="1"/>
  <variable name="X(31,67,485)" index="213424" value="1"/>
  <variable name="X(32,31,485)" index="214684" value="1"/>
  <variable name="X(32,33,102)" index="215561" value="1"/>
  <variable name="X(32,35,1031)" index="217750" value="1"/>
  <variable name="X(32,68,556)" index="218535" value="1"/>
  <variable name="X(33,32,485)" index="219724" value="1"/>
  <variable name="X(33,34,1134)" index="221633" value="1"/>
  <variable name="X(33,69,102)" index="221861" value="1"/>
  <variable name="X(34,15,1134)" index="224153" value="1"/>
  <variable name="X(34,33,485)" index="224764" value="1"/>
  <variable name="X(34,35,1184)" index="226723" value="1"/>
  <variable name="X(34,70,768)" index="227567" value="1"/>
  <variable name="X(35,10,1074)" index="229133" value="1"/>
  <variable name="X(35,16,1031)" index="230350" value="1"/>
  <variable name="X(35,32,556)" index="231135" value="1"/>
  <variable name="X(35,34,768)" index="232607" value="1"/>
  <variable name="X(35,36,1184)" index="234283" value="1"/>
  <variable name="X(35,71,944)" index="235303" value="1"/>
  <variable name="X(36,27,1184)" index="236803" value="1"/>
  <variable name="X(36,35,944)" index="237823" value="1"/>
  <variable name="X(36,72,35)" index="238174" value="1"/>
  <variable name="C(2,3)" index="239405" value="1"/>
  <variable name="C(9,5)" index="239427" value="1"/>
  <variable name="C(9,6)" index="239428" value="2"/>
  <variable name="C(9,10)" index="239429" value="3"/>
  <variable name="C(12,22)" index="239451" value="1"/>
  <variable name="C(12,12)" index="239452" value="2"/>
  <variable name="C(12,13)" index="239453" value="3"/>
  <variable name="C(24,23)" index="239541" value="1"/>
  <variable name="C(24,25)" index="239542" value="2"/>
  <variable name="C(35,36)" index="239608" value="1"/>
  <variable name="C(42,1)" index="239632" value="1"/>
  <variable name="C(42,7)" index="239633" value="2"/>
  <variable name="C(42,8)" index="239634" value="3"/>
  <variable name="C(61,4)" index="239787" value="1"/>
  <variable name="C(61,28)" index="239788" value="2"/>
  <variable name="C(61,29)" index="239789" value="3"/>
  <variable name="C(61,27)" index="239790" value="4"/>
  <variable name="C(97,28)" index="240065" value="1"/>
  <variable name="C(102,30)" index="240087" value="1"/>
  <variable name="C(102,31)" index="240088" value="2"/>
  <variable name="C(102,32)" index="240089" value="3"/>
  <variable name="C(102,33)" index="240090" value="4"/>
  <variable name="C(169,30)" index="240472" value="1"/>
  <variable name="C(252,7)" index="240877" value="1"/>
  <variable name="C(359,18)" index="241473" value="1"/>
  <variable name="C(359,23)" index="241474" value="2"/>
  <variable name="C(359,24)" index="241475" value="3"/>
  <variable name="C(359,9)" index="241476" value="4"/>
  <variable name="C(364,13)" index="241491" value="1"/>
  <variable name="C(364,14)" index="241492" value="2"/>
  <variable name="C(364,15)" index="241493" value="3"/>
  <variable name="C(369,19)" index="241519" value="1"/>
  <variable name="C(369,20)" index="241520" value="2"/>
  <variable name="C(485,34)" index="242183" value="1"/>
  <variable name="C(485,33)" index="242184" value="2"/>
  <variable name="C(485,32)" index="242185" value="3"/>
  <variable name="C(485,31)" index="242186" value="4"/>
  <variable name="C(530,5)" index="242433" value="1"/>
  <variable name="C(556,35)" index="242581" value="1"/>
  <variable name="C(556,32)" index="242582" value="2"/>
  <variable name="C(577,18)" index="242706" value="1"/>
  <variable name="C(667,7)" index="243276" value="1"/>
  <variable name="C(667,1)" index="243277" value="2"/>
  <variable name="C(667,2)" index="243278" value="3"/>
  <variable name="C(677,18)" index="243338" value="1"/>
  <variable name="C(677,13)" index="243339" value="2"/>
  <variable name="C(677,12)" index="243340" value="3"/>
  <variable name="C(706,9)" index="243516" value="1"/>
  <variable name="C(706,6)" index="243517" value="2"/>
  <variable name="C(768,22)" index="243841" value="1"/>
  <variable name="C(768,10)" index="243842" value="2"/>
  <variable name="C(768,35)" index="243843" value="3"/>
  <variable name="C(768,34)" index="243844" value="4"/>
  <variable name="C(861,21)" index="244353" value="1"/>
  <variable name="C(894,19)" index="244593" value="1"/>
  <variable name="C(897,22)" index="244608" value="1"/>
  <variable name="C(898,25)" index="244611" value="1"/>
  <variable name="C(898,23)" index="244612" value="2"/>
  <variable name="C(944,35)" index="244915" value="1"/>
  <variable name="C(946,1)" index="244920" value="1"/>
  <variable name="C(1019,29)" index="245369" value="1"/>
  <variable name="C(1019,28)" index="245370" value="2"/>
  <variable name="C(1019,4)" index="245371" value="3"/>
  <variable name="C(1026,13)" index="245417" value="1"/>
  <variable name="C(1026,11)" index="245418" value="2"/>
  <variable name="C(1031,35)" index="245450" value="1"/>
  <variable name="C(1031,16)" index="245451" value="2"/>
  <variable name="C(1074,10)" index="245724" value="1"/>
  <variable name="C(1074,6)" index="245725" value="2"/>
  <variable name="C(1074,9)" index="245726" value="3"/>
  <variable name="C(1074,24)" index="245727" value="4"/>
  <variable name="C(1134,34)" index="246046" value="1"/>
  <variable name="C(1134,15)" index="246047" value="2"/>
  <variable name="C(1134,14)" index="246048" value="3"/>
  <variable name="C(1137,17)" index="246062" value="1"/>
  <variable name="C(1184,35)" index="246320" value="1"/>
  <variable name="C(1184,36)" index="246321" value="2"/>
  <variable name="C(1184,27)" index="246322" value="3"/>
  <variable name="C(1184,29)" index="246323" value="4"/>
  <variable name="C(1251,21)" index="246653" value="1"/>
  <variable name="C(1251,20)" index="246654" value="2"/>
  <variable name="C(1251,19)" index="246655" value="3"/>
  <variable name="C(1251,26)" index="246656" value="4"/>
 </variables>
</CPLEXSolution>
